
Gurobi 9.5.1 (mac64[x86]) logging started Wed Jun  8 01:54:38 2022

Set parameter LogFile to value "/Users/keyvanmajd/Documents/GitHub/NNRepLayer_v2/demos/examples/tc7_walking_example/repair_phase_constraint/repair_net/logs/opt_log_6_8_2022_1_54_20.log"
Gurobi Optimizer version 9.5.1 build v9.5.1rc2 (mac64[x86])
Thread count: 4 physical cores, 8 logical processors, using up to 8 threads
Optimize a model with 366 rows, 134 columns and 1205 nonzeros
Model fingerprint: 0xa18d2936
Model has 101 quadratic objective terms
Coefficient statistics:
  Matrix range     [4e-03, 1e+01]
  Objective range  [3e-03, 4e+00]
  QObjective range [2e-01, 2e+00]
  Bounds range     [2e+00, 5e+01]
  RHS range        [5e-04, 2e+01]
Presolve removed 225 rows and 14 columns
Presolve time: 0.01s
Presolved: 141 rows, 120 columns, 979 nonzeros
Presolved model has 101 quadratic objective terms
Ordering time: 0.00s

Barrier statistics:
 Dense cols : 15
 AA' NZ     : 1.086e+03
 Factor NZ  : 1.587e+03
 Factor Ops : 2.326e+04 (less than 1 second per iteration)
 Threads    : 1

                  Objective                Residual
Iter       Primal          Dual         Primal    Dual     Compl     Time
   0   4.02849982e+07 -4.10275321e+07  5.14e+03 7.35e+02  8.97e+05     0s
   1   1.36452808e+07 -1.43439380e+07  2.93e+03 4.15e+02  5.14e+05     0s
   2   2.16564072e+05 -1.13681828e+06  3.69e+02 5.30e+01  9.14e+04     0s
   3   7.42845270e+01 -8.39255056e+05  1.96e+00 2.95e-01  3.41e+03     0s
   4   4.94872326e+01 -6.17076373e+04  5.18e-02 6.35e-03  2.18e+02     0s
   5   4.72244872e+01 -1.61605755e+03  1.13e-03 1.69e-04  5.86e+00     0s
   6   2.55891853e+01 -3.35775073e+02  1.05e-04 1.58e-05  1.27e+00     0s
   7   1.87505912e+01 -2.69414405e+01  9.41e-06 1.41e-06  1.61e-01     0s
   8   1.77967728e+01  1.39433939e+01  7.28e-07 1.09e-07  1.36e-02     0s
   9   1.76963333e+01  1.63372815e+01  2.35e-07 3.53e-08  4.79e-03     0s
  10   1.76478038e+01  1.75413582e+01  9.29e-09 1.39e-09  3.75e-04     0s
  11   1.76419094e+01  1.76402979e+01  1.62e-11 2.43e-12  5.67e-06     0s
  12   1.76416865e+01  1.76416350e+01  1.23e-13 1.16e-14  1.81e-07     0s
  13   1.76416808e+01  1.76416780e+01  2.33e-11 3.77e-13  9.69e-09     0s

Barrier solved model in 13 iterations and 0.02 seconds (0.00 work units)
Optimal objective 1.76416808e+01

